param U := 5;
param N := 2;
param demand := 30;

param : A :=
	1 5
	2 3
	3 5
	4 10
	5 20;

param : B :=
	1 0.1
	2 0.2
	3 0.4
	4 0.2
	5 0.3;

param : C :=
	1 0.01
	2 0.02
	3 0.3
	4 0.2
	5 0.01;

param : Pmin := 
	1 4
	2 5
	3 10
	4 6
	5 1;

param : Pmax :=
	1 25
	2 20
	3 30
	4 20
	5 10;

end;



